set VV := 0 1 2 3 4 5 6 ;
set VS := 0 1 2 3 4 5 6 7 8 9 10 11 12 13 14 15 16 17 18 ;
param cv := 
0 17
1 20
2 11
3 21
4 14
5 16
6 15
;
param cs := 
0 36
1 40
2 33
3 33
4 24
5 33
6 23
7 29
8 28
9 25
10 32
11 34
12 25
13 31
14 29
15 28
16 23
17 25
18 36
;
param bv:	 0 1 2 3 4 5 6 := 
		0 0 0 23 0 0 0 0 
		1 0 0 0 0 0 15 0 
		2 0 0 0 0 23 22 0 
		3 0 0 0 0 12 0 18 
		4 0 0 0 0 0 0 0 
		5 0 0 0 0 0 0 0 
		6 0 0 0 0 0 0 0 
;
param bs:	 0 1 2 3 4 5 6 7 8 9 10 11 12 13 14 15 16 17 18 := 
		0 0 28 0 0 0 0 0 0 0 0 0 0 0 0 0 0 0 20 0 
		1 28 0 0 0 0 0 0 0 0 0 0 30 0 0 0 0 0 0 0 
		2 0 0 0 28 39 0 0 0 0 34 0 0 0 0 0 0 0 0 0 
		3 0 0 28 0 0 0 0 0 0 0 0 31 0 0 0 0 0 32 0 
		4 0 0 39 0 0 0 0 22 0 0 0 27 0 0 0 0 33 0 0 
		5 0 0 0 0 0 0 33 0 34 0 0 0 35 0 0 0 22 0 0 
		6 0 0 0 0 0 33 0 0 0 0 0 0 0 0 0 0 0 0 0 
		7 0 0 0 0 22 0 0 0 0 0 0 0 0 0 40 39 0 0 0 
		8 0 0 0 0 0 34 0 0 0 0 28 20 22 0 0 0 0 0 0 
		9 0 0 34 0 0 0 0 0 0 0 35 0 29 0 0 0 0 0 0 
		10 0 0 0 0 0 0 0 0 28 35 0 0 0 0 0 0 32 22 34 
		11 0 30 0 31 27 0 0 0 20 0 0 0 0 0 0 31 0 0 0 
		12 0 0 0 0 0 35 0 0 22 29 0 0 0 0 0 0 39 25 0 
		13 0 0 0 0 0 0 0 0 0 0 0 0 0 0 0 0 34 24 36 
		14 0 0 0 0 0 0 0 40 0 0 0 0 0 0 0 0 0 0 0 
		15 0 0 0 0 0 0 0 39 0 0 0 31 0 0 0 0 0 0 0 
		16 0 0 0 0 33 22 0 0 0 0 32 0 39 34 0 0 0 0 0 
		17 20 0 0 32 0 0 0 0 0 0 22 0 25 24 0 0 0 0 32 
		18 0 0 0 0 0 0 0 0 0 0 34 0 0 36 0 0 0 32 0 
;
